HFSDDW
15	8	4
0	46	1	42	2	55	3	93
0	57	1	32	2	76	3	91
0	8	1	15	2	70	3	45
0	77	1	82	2	39	3	37
0	98	1	86	2	10	3	30
0	66	1	18	2	83	3	71
0	87	1	54	2	88	3	92
0	5	1	96	2	43	3	66
0	17	1	20	2	92	3	54
0	68	1	21	2	85	3	66
0	11	1	71	2	22	3	65
0	32	1	95	2	14	3	93
0	48	1	51	2	28	3	96
0	8	1	33	2	32	3	29
0	59	1	84	2	7	3	3
LBCmax: 556
RELDUE
-1	426	9	9
-1	559	2	4
-1	568	9	4
-1	314	9	4
-1	517	5	7
-1	294	5	6
-1	374	8	8
-1	472	6	9
-1	578	8	2
-1	561	8	3
-1	505	3	8
-1	540	1	9
-1	280	3	6
-1	422	6	1
-1	344	6	8
DDW
405	447
503	615
528	608
308	320
496	538
282	306
355	393
448	496
566	590
522	600
475	535
518	562
269	291
401	443
334	354
